% Auto-generated by scripts/generate_dzn.py
% problem_type   = regex
% instance       = regex_10
% source_json    = instances_json/2_high_blowup/regex_10.json
% blowup         = 46.774193548387096
% representation = NFA

mode = 1;

var_count = 33;
n_constraints = 2;
Q = 17;
S = 2;
q0 = [1, 1];
F = [{14}, {17}];
weights = [2, 3, 2, 9, 2, 5, 6, 5, 4, 4, 1, 4, 2, 4, 1, 6, 9, 1, 2, 2, 9, 9, 6, 9, 2, 2, 3, 7, 8, 4, 8, 8, 1];
d_dfa = array3d(1..2, 1..17, 1..2, [
  % k = 1
    0, 0,
    0, 0,
    0, 0,
    0, 0,
    0, 0,
    0, 0,
    0, 0,
    0, 0,
    0, 0,
    0, 0,
    0, 0,
    0, 0,
    0, 0,
    0, 0,
    0, 0,
    0, 0,
    0, 0,

  % k = 2
    0, 0,
    0, 0,
    0, 0,
    0, 0,
    0, 0,
    0, 0,
    0, 0,
    0, 0,
    0, 0,
    0, 0,
    0, 0,
    0, 0,
    0, 0,
    0, 0,
    0, 0,
    0, 0,
    0, 0
]);
d_nfa = array3d(1..2, 1..17, 1..2, [
  % k = 1
    {1, 2}, {1},
    {3}, {},
    {4}, {4},
    {5}, {5},
    {6}, {6},
    {7}, {7},
    {8}, {8},
    {9}, {9},
    {10}, {10},
    {11}, {11},
    {12}, {12},
    {13}, {13},
    {14}, {14},
    {}, {},
    {}, {},
    {}, {},
    {}, {},

  % k = 2
    {1}, {2},
    {2}, {3},
    {3}, {4},
    {4}, {5},
    {5}, {6},
    {6}, {7},
    {7}, {8},
    {8}, {9},
    {9}, {10},
    {10}, {11},
    {11}, {12},
    {12}, {13},
    {13}, {14},
    {14}, {15},
    {15}, {16},
    {16}, {17},
    {17}, {}
]);
